p edges 326 1012
e 1 2
e 1 3
e 1 16
e 1 39
e 1 94
e 1 131
e 2 3
e 2 8
e 2 19
e 2 31
e 2 95
e 2 131
e 3 11
e 3 32
e 3 94
e 3 95
e 4 5
e 4 17
e 4 35
e 4 40
e 4 97
e 4 162
e 5 48
e 5 185
e 5 238
e 6 7
e 6 8
e 6 9
e 6 22
e 6 53
e 7 8
e 7 9
e 7 46
e 7 98
e 7 99
e 8 9
e 8 19
e 8 31
e 8 53
e 8 134
e 10 11
e 10 12
e 10 13
e 10 14
e 10 26
e 10 33
e 10 44
e 11 12
e 11 13
e 11 32
e 11 100
e 11 101
e 12 13
e 12 18
e 12 308
e 13 24
e 13 34
e 13 38
e 13 42
e 13 55
e 13 308
e 14 15
e 14 26
e 14 33
e 14 44
e 14 135
e 14 212
e 14 213
e 15 23
e 15 29
e 15 59
e 15 212
e 16 17
e 16 18
e 16 39
e 16 60
e 16 137
e 17 18
e 17 35
e 17 40
e 17 61
e 17 137
e 18 245
e 18 310
e 19 20
e 19 21
e 19 31
e 19 64
e 19 191
e 20 21
e 20 27
e 20 63
e 20 64
e 20 65
e 21 41
e 21 64
e 21 191
e 22 23
e 22 24
e 22 66
e 22 67
e 23 24
e 23 29
e 23 139
e 23 192
e 23 249
e 24 34
e 24 38
e 24 42
e 24 141
e 24 278
e 25 26
e 25 37
e 25 110
e 25 142
e 26 33
e 26 44
e 26 71
e 26 220
e 27 28
e 27 29
e 27 75
e 27 76
e 28 29
e 28 36
e 28 45
e 28 75
e 28 195
e 28 253
e 29 114
e 29 173
e 29 196
e 29 301
e 30 43
e 30 47
e 30 174
e 30 175
e 31 32
e 31 77
e 31 118
e 31 150
e 32 118
e 32 119
e 33 34
e 33 35
e 33 36
e 33 44
e 33 120
e 33 151
e 33 199
e 33 229
e 34 35
e 34 36
e 34 38
e 34 42
e 34 82
e 34 123
e 34 285
e 34 303
e 35 36
e 35 40
e 35 154
e 35 178
e 35 179
e 36 45
e 36 152
e 36 258
e 37 38
e 37 155
e 38 42
e 38 230
e 38 323
e 39 40
e 39 41
e 39 42
e 39 127
e 39 156
e 40 41
e 40 42
e 40 180
e 41 42
e 41 156
e 41 200
e 42 288
e 42 324
e 43 44
e 43 45
e 43 47
e 43 157
e 44 45
e 44 128
e 44 203
e 44 232
e 45 261
e 45 262
e 46 47
e 46 48
e 46 130
e 47 48
e 47 181
e 48 160
e 48 234
e 48 263
e 48 291
e 49 50
e 49 51
e 49 52
e 49 75
e 49 86
e 49 92
e 49 132
e 49 238
e 50 51
e 50 52
e 50 76
e 50 83
e 50 132
e 51 52
e 51 67
e 51 71
e 51 80
e 51 85
e 51 207
e 51 208
e 52 59
e 52 81
e 52 89
e 52 96
e 52 186
e 52 207
e 53 70
e 53 134
e 54 55
e 54 62
e 54 88
e 54 90
e 54 166
e 54 275
e 55 79
e 55 82
e 55 308
e 56 57
e 56 58
e 56 59
e 56 68
e 56 72
e 56 84
e 56 87
e 56 102
e 57 58
e 57 59
e 57 61
e 57 73
e 57 102
e 58 59
e 58 64
e 58 77
e 58 188
e 58 189
e 59 81
e 59 89
e 59 212
e 60 61
e 60 62
e 60 63
e 60 66
e 60 137
e 61 62
e 61 73
e 61 137
e 62 88
e 62 90
e 62 190
e 62 214
e 62 277
e 63 64
e 63 65
e 63 66
e 63 104
e 63 138
e 64 65
e 64 77
e 64 191
e 65 78
e 65 93
e 65 106
e 65 191
e 65 246
e 65 296
e 66 67
e 66 139
e 66 140
e 66 141
e 67 71
e 67 80
e 67 85
e 67 193
e 67 218
e 67 219
e 68 69
e 68 70
e 68 71
e 68 72
e 68 84
e 68 87
e 68 110
e 68 111
e 69 70
e 69 71
e 69 74
e 69 91
e 69 170
e 69 171
e 70 71
e 70 111
e 70 194
e 71 80
e 71 85
e 71 220
e 72 73
e 72 74
e 72 84
e 72 87
e 72 112
e 72 113
e 73 74
e 73 113
e 73 143
e 74 91
e 74 113
e 74 143
e 75 76
e 75 86
e 75 92
e 75 195
e 75 253
e 76 83
e 76 144
e 76 145
e 77 78
e 77 79
e 77 80
e 77 118
e 77 150
e 78 79
e 78 80
e 78 93
e 78 149
e 78 314
e 79 80
e 79 82
e 79 228
e 79 302
e 79 322
e 80 85
e 80 227
e 80 228
e 81 82
e 81 83
e 81 89
e 81 122
e 81 179
e 81 198
e 81 303
e 82 83
e 82 123
e 82 285
e 82 303
e 83 151
e 83 152
e 83 153
e 83 154
e 84 85
e 84 86
e 84 87
e 84 124
e 84 125
e 85 86
e 85 230
e 85 231
e 86 92
e 86 124
e 86 259
e 87 88
e 87 89
e 87 128
e 87 129
e 88 89
e 88 90
e 88 201
e 88 232
e 88 290
e 89 158
e 89 204
e 89 261
e 90 91
e 90 92
e 90 93
e 91 92
e 91 93
e 91 182
e 91 183
e 92 93
e 92 267
e 93 319
e 94 95
e 94 104
e 94 131
e 95 101
e 95 111
e 95 131
e 96 97
e 96 114
e 96 122
e 96 186
e 96 207
e 97 113
e 97 162
e 98 99
e 98 102
e 98 107
e 98 133
e 98 163
e 98 164
e 99 120
e 99 128
e 99 209
e 99 210
e 99 211
e 100 101
e 101 111
e 101 165
e 101 187
e 102 107
e 103 118
e 103 130
e 103 190
e 104 105
e 104 106
e 104 138
e 105 106
e 105 109
e 105 112
e 105 247
e 106 115
e 106 121
e 106 191
e 106 246
e 106 296
e 107 108
e 107 109
e 107 168
e 107 169
e 108 109
e 108 124
e 108 249
e 108 250
e 109 112
e 109 219
e 109 278
e 110 111
e 110 127
e 110 142
e 111 194
e 112 113
e 112 281
e 112 282
e 113 143
e 114 115
e 114 122
e 114 173
e 114 196
e 114 301
e 115 121
e 115 223
e 115 301
e 115 312
e 116 117
e 116 119
e 117 123
e 117 129
e 117 284
e 117 321
e 118 119
e 118 130
e 118 150
e 120 121
e 120 122
e 120 123
e 120 128
e 120 151
e 120 199
e 120 229
e 121 122
e 121 123
e 121 258
e 122 123
e 122 179
e 122 198
e 122 303
e 123 129
e 123 285
e 123 303
e 124 125
e 124 259
e 125 126
e 126 127
e 127 156
e 128 129
e 128 203
e 128 232
e 129 202
e 129 290
e 129 317
e 130 159
e 130 206
e 131 156
e 131 159
e 132 152
e 132 238
e 133 134
e 133 137
e 133 145
e 133 154
e 133 163
e 133 164
e 134 147
e 134 150
e 135 136
e 135 144
e 135 151
e 135 212
e 135 213
e 136 141
e 136 161
e 136 309
e 137 145
e 137 154
e 139 140
e 139 141
e 139 158
e 139 192
e 139 249
e 140 141
e 140 142
e 140 149
e 140 155
e 140 169
e 140 218
e 140 250
e 141 161
e 141 278
e 142 149
e 142 155
e 142 171
e 142 279
e 143 148
e 143 157
e 144 145
e 144 151
e 144 223
e 145 154
e 145 172
e 145 173
e 146 147
e 146 153
e 146 160
e 146 224
e 146 284
e 147 150
e 147 175
e 147 197
e 148 149
e 148 150
e 148 157
e 148 176
e 148 177
e 149 150
e 149 155
e 149 314
e 151 152
e 151 153
e 151 154
e 151 199
e 151 229
e 152 153
e 152 154
e 152 258
e 153 154
e 153 160
e 153 229
e 153 285
e 154 178
e 154 179
e 155 315
e 156 159
e 156 200
e 157 158
e 158 204
e 158 261
e 159 160
e 159 161
e 159 206
e 160 161
e 160 234
e 160 263
e 160 291
e 161 304
e 161 325
e 162 169
e 162 171
e 162 208
e 162 306
e 163 164
e 163 166
e 163 180
e 163 239
e 163 273
e 163 274
e 164 173
e 164 176
e 164 179
e 164 182
e 164 209
e 164 273
e 164 295
e 165 166
e 165 167
e 165 168
e 165 178
e 165 187
e 166 167
e 166 180
e 166 275
e 167 170
e 167 187
e 168 169
e 168 178
e 168 192
e 168 193
e 169 171
e 169 218
e 169 250
e 170 171
e 170 251
e 170 252
e 171 279
e 172 173
e 172 175
e 172 195
e 172 196
e 173 176
e 173 179
e 173 182
e 173 196
e 173 301
e 174 175
e 174 177
e 175 197
e 176 177
e 176 179
e 176 182
e 176 257
e 176 302
e 178 179
e 178 198
e 178 199
e 179 182
e 179 198
e 179 303
e 180 288
e 180 289
e 181 183
e 182 183
e 182 235
e 182 305
e 184 185
e 184 186
e 184 202
e 184 306
e 185 186
e 185 189
e 185 190
e 185 194
e 185 201
e 185 238
e 186 192
e 186 196
e 186 198
e 186 204
e 186 207
e 187 188
e 187 195
e 188 189
e 188 195
e 188 242
e 189 190
e 189 194
e 189 201
e 189 242
e 189 276
e 190 194
e 190 201
e 190 214
e 190 277
e 191 197
e 191 200
e 191 205
e 191 246
e 191 296
e 192 193
e 192 196
e 192 198
e 192 204
e 192 249
e 193 199
e 193 203
e 193 206
e 193 218
e 193 219
e 194 201
e 194 279
e 194 280
e 195 196
e 195 253
e 196 198
e 196 204
e 196 301
e 197 200
e 197 205
e 197 313
e 198 199
e 198 204
e 198 303
e 199 203
e 199 206
e 199 229
e 200 205
e 200 260
e 200 316
e 201 202
e 201 203
e 201 204
e 201 205
e 201 232
e 201 290
e 202 203
e 202 204
e 202 205
e 202 290
e 202 317
e 203 204
e 203 205
e 203 206
e 203 232
e 204 205
e 204 261
e 205 262
e 205 317
e 206 233
e 206 234
e 207 208
e 207 209
e 207 212
e 207 216
e 207 235
e 208 211
e 208 223
e 208 306
e 209 210
e 209 211
e 209 212
e 209 216
e 209 235
e 209 273
e 209 295
e 210 211
e 210 221
e 210 230
e 210 241
e 210 307
e 211 223
e 211 240
e 211 274
e 211 295
e 211 307
e 212 213
e 212 216
e 212 235
e 213 218
e 213 276
e 213 309
e 214 215
e 214 224
e 214 232
e 214 277
e 215 231
e 215 277
e 216 217
e 216 235
e 216 248
e 216 296
e 216 297
e 217 228
e 217 237
e 217 297
e 218 219
e 218 250
e 219 229
e 219 234
e 219 278
e 221 222
e 221 230
e 222 226
e 223 301
e 223 312
e 224 225
e 224 226
e 224 232
e 224 284
e 225 226
e 225 227
e 226 254
e 226 255
e 227 228
e 228 237
e 228 302
e 228 322
e 229 234
e 229 285
e 230 231
e 230 323
e 231 259
e 231 287
e 232 290
e 233 234
e 233 236
e 234 263
e 234 291
e 235 236
e 235 237
e 235 305
e 236 237
e 237 305
e 237 326
e 238 239
e 238 242
e 238 263
e 239 240
e 239 241
e 239 242
e 239 263
e 239 273
e 239 274
e 240 241
e 240 246
e 240 250
e 240 260
e 240 265
e 240 274
e 240 295
e 240 307
e 241 243
e 241 251
e 241 307
e 242 263
e 242 276
e 243 244
e 243 245
e 243 251
e 243 310
e 243 320
e 244 245
e 245 258
e 245 262
e 245 310
e 246 247
e 246 248
e 246 250
e 246 260
e 246 265
e 246 296
e 247 248
e 247 253
e 248 252
e 248 257
e 248 261
e 248 296
e 248 297
e 249 250
e 249 254
e 249 259
e 249 264
e 250 260
e 250 265
e 251 252
e 251 299
e 252 257
e 252 261
e 252 298
e 252 299
e 253 283
e 254 255
e 254 259
e 254 264
e 255 256
e 256 257
e 257 261
e 257 302
e 258 262
e 259 264
e 259 287
e 260 265
e 260 316
e 261 262
e 262 317
e 263 264
e 263 265
e 263 266
e 263 291
e 264 265
e 264 266
e 264 291
e 264 304
e 265 266
e 265 318
e 266 267
e 268 269
e 268 270
e 268 274
e 268 279
e 269 270
e 269 271
e 270 275
e 270 287
e 270 291
e 270 292
e 271 272
e 272 276
e 272 282
e 272 293
e 273 274
e 273 277
e 273 281
e 273 295
e 274 279
e 274 295
e 274 307
e 275 287
e 275 291
e 276 282
e 276 309
e 277 281
e 278 284
e 278 288
e 278 290
e 279 280
e 281 282
e 281 300
e 282 300
e 282 311
e 283 285
e 283 312
e 284 288
e 284 290
e 284 321
e 285 303
e 286 287
e 286 289
e 287 291
e 288 289
e 288 290
e 288 324
e 290 317
e 291 304
e 292 294
e 293 294
e 293 295
e 295 307
e 296 297
e 296 300
e 296 301
e 297 299
e 297 303
e 297 305
e 298 299
e 299 303
e 299 305
e 300 301
e 300 311
e 301 312
e 302 304
e 302 322
e 303 305
e 304 325
e 305 326
e 306 308
e 306 309
e 306 312
e 307 310
e 307 317
e 308 309
e 308 312
e 309 312
e 310 317
e 310 320
e 313 314
e 315 316
e 318 319
e 321 322
e 323 324
e 325 326
w 1 273
w 2 540
w 3 186
w 4 51
w 5 948
w 6 334
w 7 403
w 8 27
w 9 234
w 10 19
w 11 215
w 12 675
w 13 88
w 14 139
w 15 860
w 16 628
w 17 47
w 18 324
w 19 30
w 20 286
w 21 683
w 22 665
w 23 89
w 24 244
w 25 415
w 26 584
w 27 713
w 28 236
w 29 49
w 30 234
w 31 401
w 32 598
w 33 206
w 34 166
w 35 400
w 36 226
w 37 584
w 38 415
w 39 98
w 40 500
w 41 316
w 42 84
w 43 413
w 44 49
w 45 537
w 46 596
w 47 352
w 48 51
w 49 296
w 50 330
w 51 48
w 52 324
w 53 665
w 54 413
w 55 586
w 56 193
w 57 193
w 58 603
w 59 8
w 60 166
w 61 747
w 62 86
w 63 511
w 64 6
w 65 195
w 66 322
w 67 11
w 68 44
w 69 226
w 70 334
w 71 395
w 72 341
w 73 59
w 74 599
w 75 203
w 76 82
w 77 389
w 78 304
w 79 238
w 80 66
w 81 239
w 82 174
w 83 586
w 84 242
w 85 477
w 86 279
w 87 177
w 88 394
w 89 427
w 90 105
w 91 174
w 92 220
w 93 500
w 94 540
w 95 273
w 96 312
w 97 687
w 98 140
w 99 455
w 100 527
w 101 256
w 102 806
w 103 527
w 104 459
w 105 464
w 106 75
w 107 53
w 108 757
w 109 189
w 110 485
w 111 469
w 112 345
w 113 312
w 114 632
w 115 367
w 116 666
w 117 333
w 118 68
w 119 333
w 120 221
w 121 557
w 122 54
w 123 166
w 124 242
w 125 514
w 126 485
w 127 514
w 128 322
w 129 500
w 130 403
w 131 186
w 132 669
w 133 693
w 134 306
w 135 127
w 136 872
w 137 205
w 138 28
w 139 586
w 140 11
w 141 79
w 142 99
w 143 28
w 144 853
w 145 63
w 146 447
w 147 552
w 148 384
w 149 474
w 150 140
w 151 18
w 152 330
w 153 26
w 154 37
w 155 415
w 156 387
w 157 586
w 158 413
w 159 425
w 160 526
w 161 47
w 162 261
w 163 99
w 164 67
w 165 171
w 166 400
w 167 428
w 168 409
w 169 536
w 170 571
w 171 202
w 172 773
w 173 163
w 174 538
w 175 226
w 176 153
w 177 461
w 178 419
w 179 142
w 180 500
w 181 647
w 182 473
w 183 352
w 184 916
w 185 16
w 186 66
w 187 571
w 188 333
w 189 63
w 190 472
w 191 279
w 192 134
w 193 455
w 194 195
w 195 94
w 196 132
w 197 220
w 198 536
w 199 44
w 200 295
w 201 251
w 202 83
w 203 329
w 204 130
w 205 204
w 206 170
w 207 296
w 208 655
w 209 77
w 210 267
w 211 198
w 212 130
w 213 602
w 214 220
w 215 779
w 216 138
w 217 861
w 218 397
w 219 134
w 220 19
w 221 429
w 222 570
w 223 146
w 224 481
w 225 88
w 226 429
w 227 911
w 228 21
w 229 509
w 230 302
w 231 220
w 232 298
w 233 473
w 234 356
w 235 356
w 236 526
w 237 117
w 238 34
w 239 293
w 240 60
w 241 646
w 242 666
w 243 17
w 244 859
w 245 122
w 246 95
w 247 535
w 248 368
w 249 188
w 250 53
w 251 336
w 252 91
w 253 464
w 254 59
w 255 510
w 256 489
w 257 510
w 258 442
w 259 477
w 260 289
w 261 28
w 262 434
w 263 5
w 264 274
w 265 500
w 266 220
w 267 779
w 268 97
w 269 451
w 270 451
w 271 548
w 272 451
w 273 403
w 274 203
w 275 186
w 276 270
w 277 220
w 278 675
w 279 698
w 280 105
w 281 375
w 282 278
w 283 535
w 284 71
w 285 464
w 286 697
w 287 302
w 288 197
w 289 302
w 290 55
w 291 60
w 292 548
w 293 548
w 294 451
w 295 451
w 296 353
w 297 138
w 298 245
w 299 663
w 300 624
w 301 22
w 302 335
w 303 27
w 304 664
w 305 170
w 306 83
w 307 85
w 308 324
w 309 127
w 310 552
w 311 97
w 312 464
w 313 779
w 314 220
w 315 584
w 316 415
w 317 361
w 318 500
w 319 500
w 320 429
w 321 595
w 322 404
w 323 282
w 324 717
w 325 287
w 326 712
n 1 C0035
n 2 C0067
n 3 C0411
n 4 C0783
n 5 C1529
n 6 C0004
n 7 C0022
n 8 C0068
n 9 C0183
n 10 C0082
n 11 C0413
n 12 C1923
n 13 C2151
n 14 C1158
n 15 C1758
n 16 C0038
n 17 C0787
n 18 C1925
n 19 C0071
n 20 C0206
n 21 C0962
n 22 C0009
n 23 C0138
n 24 C2155
n 25 C0591
n 26 C1162
n 27 C0210
n 28 C1338
n 29 C1760
n 30 C0058
n 31 C0075
n 32 C0419
n 33 C0092
n 34 C0174
n 35 C0795
n 36 C1341
n 37 C0595
n 38 C2162
n 39 C0045
n 40 C0797
n 41 C0968
n 42 C2163
n 43 C0063
n 44 C0095
n 45 C0113
n 46 C0032
n 47 C0064
n 48 C0134
n 49 C0312
n 50 C0600
n 51 C1173
n 52 C1763
n 53 C0973
n 54 C0333
n 55 C0376
n 56 C0223
n 57 C0260
n 58 C0279
n 59 C0350
n 60 C0243
n 61 C0261
n 62 C0335
n 63 C0244
n 64 C0281
n 65 C0361
n 66 C0245
n 67 C1179
n 68 C0227
n 69 C0808
n 70 C0979
n 71 C1180
n 72 C0228
n 73 C0265
n 74 C0809
n 75 C0321
n 76 C0609
n 77 C0287
n 78 C0367
n 79 C0385
n 80 C1184
n 81 C0353
n 82 C0386
n 83 C0612
n 84 C0233
n 85 C1186
n 86 C1360
n 87 C0235
n 88 C0346
n 89 C0354
n 90 C0348
n 91 C0818
n 92 C1364
n 93 C1957
n 94 C0424
n 95 C0990
n 96 C0523
n 97 C0819
n 98 C0438
n 99 C0469
n 100 C0569
n 101 C0992
n 102 C0440
n 103 C0458
n 104 C0428
n 105 C0510
n 106 C1964
n 107 C0443
n 108 C1371
n 109 C1573
n 110 C0623
n 111 C0995
n 112 C0513
n 113 C0827
n 114 C1772
n 115 C1968
n 116 C0577
n 117 C2195
n 118 C0463
n 119 C0578
n 120 C0480
n 121 C0542
n 122 C1773
n 123 C2197
n 124 C0499
n 125 C0580
n 126 C0581
n 127 C0628
n 128 C0483
n 129 C0563
n 130 C0466
n 131 C0650
n 132 C1383
n 133 C0838
n 134 C1005
n 135 C0666
n 136 C2206
n 137 C0841
n 138 C0770
n 139 C0721
n 140 C0733
n 141 C2209
n 142 C1986
n 143 C0639
n 144 C0672
n 145 C0846
n 146 C0711
n 147 C1011
n 148 C0642
n 149 C0738
n 150 C1012
n 151 C0675
n 152 C0693
n 153 C0713
n 154 C0849
n 155 C1992
n 156 C0660
n 157 C0646
n 158 C0724
n 159 C0661
n 160 C0717
n 161 C0761
n 162 C1997
n 163 C1606
n 164 C1782
n 165 C0857
n 166 C0887
n 167 C1402
n 168 C0861
n 169 C0927
n 170 C1405
n 171 C2004
n 172 C1026
n 173 C1790
n 174 C0949
n 175 C1027
n 176 C0914
n 177 C0950
n 178 C0867
n 179 C0915
n 180 C1619
n 181 C0955
n 182 C0920
n 183 C0956
n 184 C1117
n 185 C1625
n 186 C1799
n 187 C1415
n 188 C1056
n 189 C1628
n 190 C1629
n 191 C2022
n 192 C1093
n 193 C1233
n 194 C1632
n 195 C1062
n 196 C1094
n 197 C1109
n 198 C1095
n 199 C1239
n 200 C2031
n 201 C1088
n 202 C1132
n 203 C1242
n 204 C1804
n 205 C2032
n 206 C1243
n 207 C1263
n 208 C2035
n 209 C1264
n 210 C1299
n 211 C2036
n 212 C1266
n 213 C1284
n 214 C1249
n 215 C1809
n 216 C1268
n 217 C2242
n 218 C1287
n 219 C1649
n 220 C1318
n 221 C1304
n 222 C1436
n 223 C2044
n 224 C1255
n 225 C1321
n 226 C1437
n 227 C1322
n 228 C2246
n 229 C1655
n 230 C1307
n 231 C1818
n 232 C1260
n 233 C1327
n 234 C1659
n 235 C1280
n 236 C1328
n 237 C2250
n 238 C1443
n 239 C1444
n 240 C1480
n 241 C1497
n 242 C1446
n 243 C1499
n 244 C1513
n 245 C2057
n 246 C1484
n 247 C1666
n 248 C1828
n 249 C1467
n 250 C1485
n 251 C1501
n 252 C1830
n 253 C1670
n 254 C1471
n 255 C1519
n 256 C1520
n 257 C1834
n 258 C2065
n 259 C1474
n 260 C1493
n 261 C1838
n 262 C2068
n 263 C1459
n 264 C1477
n 265 C1495
n 266 C1525
n 267 C1526
n 268 C1699
n 269 C1737
n 270 C1841
n 271 C1738
n 272 C2072
n 273 C1682
n 274 C1702
n 275 C1845
n 276 C2076
n 277 C1685
n 278 C1725
n 279 C1708
n 280 C1746
n 281 C1689
n 282 C2081
n 283 C2260
n 284 C1729
n 285 C2263
n 286 C1752
n 287 C1856
n 288 C1733
n 289 C1753
n 290 C1734
n 291 C1859
n 292 C1899
n 293 C1862
n 294 C1900
n 295 C1864
n 296 C2098
n 297 C2274
n 298 C1908
n 299 C2276
n 300 C2101
n 301 C2102
n 302 C1892
n 303 C2281
n 304 C1897
n 305 C2286
n 306 C2287
n 307 C2112
n 308 C2289
n 309 C2290
n 310 C2115
n 311 C2139
n 312 C2296
n 313 C2141
n 314 C2142
n 315 C2144
n 316 C2145
n 317 C2126
n 318 C2147
n 319 C2148
n 320 C2309
n 321 C2315
n 322 C2316
n 323 C2318
n 324 C2319
n 325 C2321
n 326 C2322
o 1 13
o 2 14
o 3 19
o 4 34
o 5 37
o 6 41
o 7 42
o 8 45
o 9 51
o 10 67
o 11 74
o 12 81
o 13 82
o 14 94
o 15 97
o 16 102
o 17 114
o 18 119
o 19 125
o 20 132
o 21 136
o 22 142
o 23 147
o 24 158
o 25 172
o 26 175
o 27 210
o 28 213
o 29 215
o 30 221
o 31 243
o 32 251
o 33 262
o 34 267
o 35 270
o 36 272
o 37 290
o 38 297
o 39 300
o 40 312
o 41 313
o 42 318
o 43 320
o 44 321
o 45 322
o 46 337
o 47 339
o 48 343
o 49 393
o 50 399
o 51 402
o 52 405
o 53 420
o 54 432
o 55 434
o 56 444
o 57 446
o 58 447
o 59 451
o 60 465
o 61 466
o 62 470
o 63 483
o 64 485
o 65 489
o 66 501
o 67 514
o 68 520
o 69 531
o 70 532
o 71 533
o 72 538
o 73 540
o 74 549
o 75 561
o 76 567
o 77 597
o 78 601
o 79 602
o 80 607
o 81 619
o 82 621
o 83 623
o 84 632
o 85 645
o 86 646
o 87 668
o 88 674
o 89 675
o 90 712
o 91 717
o 92 720
o 93 722
o 94 724
o 95 730
o 96 737
o 97 741
o 98 749
o 99 751
o 100 773
o 101 776
o 102 782
o 103 799
o 104 814
o 105 819
o 106 829
o 107 831
o 108 841
o 109 842
o 110 855
o 111 857
o 112 868
o 113 873
o 114 892
o 115 893
o 116 903
o 117 911
o 118 914
o 119 920
o 120 930
o 121 934
o 122 941
o 123 943
o 124 948
o 125 952
o 126 969
o 127 970
o 128 979
o 129 984
o 130 995
o 131 1034
o 132 1051
o 133 1064
o 134 1065
o 135 1087
o 136 1100
o 137 1109
o 138 1123
o 139 1135
o 140 1136
o 141 1145
o 142 1159
o 143 1161
o 144 1177
o 145 1184
o 146 1195
o 147 1200
o 148 1206
o 149 1211
o 150 1215
o 151 1222
o 152 1223
o 153 1224
o 154 1229
o 155 1249
o 156 1252
o 157 1266
o 158 1270
o 159 1282
o 160 1285
o 161 1287
o 162 1319
o 163 1328
o 164 1329
o 165 1331
o 166 1333
o 167 1338
o 168 1373
o 169 1376
o 170 1389
o 171 1392
o 172 1409
o 173 1411
o 174 1418
o 175 1419
o 176 1427
o 177 1429
o 178 1435
o 179 1437
o 180 1463
o 181 1480
o 182 1489
o 183 1491
o 184 1512
o 185 1516
o 186 1517
o 187 1538
o 188 1543
o 189 1551
o 190 1563
o 191 1575
o 192 1580
o 193 1584
o 194 1598
o 195 1613
o 196 1615
o 197 1628
o 198 1650
o 199 1654
o 200 1680
o 201 1684
o 202 1687
o 203 1689
o 204 1692
o 205 1693
o 206 1701
o 207 1718
o 208 1723
o 209 1725
o 210 1727
o 211 1732
o 212 1745
o 213 1746
o 214 1751
o 215 1758
o 216 1762
o 217 1770
o 218 1773
o 219 1775
o 220 1782
o 221 1791
o 222 1793
o 223 1804
o 224 1805
o 225 1809
o 226 1810
o 227 1819
o 228 1824
o 229 1829
o 230 1835
o 231 1839
o 232 1852
o 233 1863
o 234 1865
o 235 1870
o 236 1873
o 237 1878
o 238 1879
o 239 1886
o 240 1888
o 241 1889
o 242 1902
o 243 1912
o 244 1913
o 245 1916
o 246 1919
o 247 1922
o 248 1923
o 249 1926
o 250 1927
o 251 1935
o 252 1938
o 253 1952
o 254 1956
o 255 1959
o 256 1967
o 257 1969
o 258 1977
o 259 1979
o 260 1988
o 261 1999
o 262 2000
o 263 2001
o 264 2002
o 265 2003
o 266 2005
o 267 2013
o 268 2018
o 269 2019
o 270 2020
o 271 2024
o 272 2026
o 273 2034
o 274 2035
o 275 2045
o 276 2053
o 277 2055
o 278 2071
o 279 2077
o 280 2079
o 281 2083
o 282 2088
o 283 2096
o 284 2099
o 285 2117
o 286 2121
o 287 2122
o 288 2127
o 289 2128
o 290 2134
o 291 2143
o 292 2154
o 293 2156
o 294 2157
o 295 2164
o 296 2187
o 297 2188
o 298 2196
o 299 2198
o 300 2202
o 301 2207
o 302 2215
o 303 2223
o 304 2240
o 305 2248
o 306 2253
o 307 2254
o 308 2259
o 309 2262
o 310 2263
o 311 2276
o 312 2280
o 313 2282
o 314 2285
o 315 2291
o 316 2294
o 317 2296
o 318 2300
o 319 2303
o 320 2309
o 321 2315
o 322 2316
o 323 2318
o 324 2319
o 325 2321
o 326 2322
